
n_res = 4;
rcap = [15, 21, 112, 66];
rtype = [1, 1, 2, 2];
n_tasks = 50;
modes =  [{1, 2, 3}, {4, 5, 6}, {7, 8, 9}, {10, 11, 12}, {13, 14, 15}, {16, 17, 18}, {19, 20, 21}, {22, 23, 24}, {25, 26, 27}, {28, 29, 30}, {31, 32, 33}, {34, 35, 36}, {37, 38, 39}, {40, 41, 42}, {43, 44, 45}, {46, 47, 48}, {49, 50, 51}, {52, 53, 54}, {55, 56, 57}, {58, 59, 60}, {61, 62, 63}, {64, 65, 66}, {67, 68, 69}, {70, 71, 72}, {73, 74, 75}, {76, 77, 78}, {79, 80, 81}, {82, 83, 84}, {85, 86, 87}, {88, 89, 90}, {91, 92, 93}, {94, 95, 96}, {97, 98, 99}, {100, 101, 102}, {103, 104, 105}, {106, 107, 108}, {109, 110, 111}, {112, 113, 114}, {115, 116, 117}, {118, 119, 120}, {121, 122, 123}, {124, 125, 126}, {127, 128, 129}, {130, 131, 132}, {133, 134, 135}, {136, 137, 138}, {139, 140, 141}, {142, 143, 144}, {145, 146, 147}, {148, 149, 150}];
succ =  [{9, 8, 6, 2}, {7, 4, 3}, {13, 11, 5}, {14, 5}, {22, 17, 16, 15, 12, 10}, {22, 17, 16, 15, 12, 10}, {29, 27, 24, 23, 21, 17, 16}, {27, 23, 18, 13}, {29, 27, 24, 23, 22, 21, 18}, {29, 28, 27, 24, 23, 19, 18}, {29, 27, 22, 21, 16}, {29, 28, 27, 23, 21, 18}, {29, 26, 24, 22, 21}, {29, 28, 27, 21, 20}, {28, 24, 23, 20}, {28, 18}, {28, 19}, {20}, {20}, {26, 25}, {37, 36, 33, 32, 31, 30}, {37, 36, 33, 32, 30, 28}, {30, 25}, {30, 25}, {37, 35, 34, 33, 32, 31}, {39, 37, 36, 30}, {39, 38, 36, 35, 32}, {44, 39, 38, 35, 34}, {40, 35, 33}, {38, 35, 34}, {50, 44, 42, 40, 38}, {50, 44, 43, 42, 40}, {50, 44, 42, 41, 39}, {50, 43, 42, 40}, {50, 48, 42, 41}, {44, 43, 42}, {50, 49, 48, 46, 45}, {49, 47, 43}, {45, 43}, {41}, {49, 47, 46}, {49, 45}, {48, 46}, {48, 46}, {47}, {}, {}, {}, {}, {}];
n_opt = 150;
dur = [6, 7, 8, 1, 3, 8, 1, 4, 7, 4, 5, 9, 2, 4, 9, 1, 2, 9, 4, 6, 8, 2, 4, 7, 1, 2, 3, 3, 9, 10, 1, 8, 9, 4, 6, 6, 3, 8, 9, 4, 8, 10, 2, 6, 8, 4, 6, 10, 4, 8, 9, 1, 5, 8, 2, 5, 6, 4, 5, 10, 1, 2, 5, 4, 7, 7, 4, 6, 7, 7, 8, 9, 4, 10, 10, 1, 1, 8, 1, 2, 9, 5, 7, 8, 1, 6, 7, 2, 6, 7, 3, 4, 10, 3, 6, 7, 1, 2, 6, 3, 5, 7, 3, 4, 4, 1, 2, 3, 1, 4, 5, 3, 4, 4, 1, 4, 7, 6, 8, 8, 5, 7, 9, 5, 9, 10, 3, 7, 7, 6, 9, 9, 2, 5, 8, 1, 2, 2, 2, 9, 10, 5, 8, 9, 3, 4, 5, 6, 7, 8];
rreq = [|0, 0, 0, 9, 6, 5, 9, 0, 1, 0, 8, 7, 8, 5, 2, 0, 0, 0, 0, 8, 0, 6, 2, 0, 7, 0, 0, 7, 0, 4, 0, 8, 0, 0, 1, 0, 0, 5, 3, 0, 0, 0, 0, 0, 1, 8, 0, 7, 0, 7, 0, 9, 0, 0, 0, 8, 6, 0, 0, 0, 0, 8, 8, 9, 0, 1, 6, 6, 6, 2, 2, 2, 0, 6, 0, 0, 7, 0, 0, 4, 0, 6, 3, 0, 2, 1, 0, 0, 0, 3, 0, 0, 3, 0, 0, 0, 0, 0, 1, 4, 2, 2, 0, 5, 0, 0, 0, 3, 0, 0, 7, 5, 0, 0, 0, 0, 0, 0, 4, 3, 0, 6, 5, 0, 0, 0, 0, 0, 4, 0, 8, 8, 7, 6, 6, 5, 4, 0, 0, 0, 0, 4, 0, 1, 7, 5, 4, 0, 0, 0
 |2, 2, 2, 0, 0, 0, 0, 3, 0, 8, 0, 0, 0, 0, 0, 4, 4, 2, 8, 0, 6, 0, 0, 8, 0, 8, 6, 0, 1, 0, 6, 0, 5, 10, 0, 7, 10, 0, 0, 7, 7, 3, 10, 7, 0, 0, 10, 0, 6, 0, 2, 0, 2, 2, 7, 0, 0, 8, 7, 5, 7, 0, 0, 0, 4, 0, 0, 0, 0, 0, 0, 0, 8, 0, 7, 6, 0, 1, 10, 0, 4, 0, 0, 1, 0, 0, 3, 5, 5, 0, 4, 2, 0, 5, 4, 2, 4, 2, 0, 0, 0, 0, 9, 0, 5, 7, 7, 0, 7, 4, 0, 0, 2, 2, 9, 8, 8, 6, 0, 0, 8, 0, 0, 6, 6, 6, 4, 3, 0, 5, 0, 0, 0, 0, 0, 0, 0, 4, 6, 4, 2, 0, 4, 0, 0, 0, 0, 8, 6, 4
 |9, 8, 7, 0, 1, 1, 9, 9, 0, 4, 2, 0, 0, 8, 0, 9, 8, 8, 0, 7, 0, 6, 0, 0, 0, 4, 3, 5, 4, 0, 0, 0, 0, 6, 4, 0, 0, 0, 0, 0, 6, 0, 2, 0, 1, 7, 6, 3, 9, 0, 7, 7, 7, 6, 7, 6, 4, 0, 0, 2, 8, 3, 1, 5, 3, 3, 8, 4, 3, 3, 2, 1, 0, 0, 0, 0, 0, 0, 0, 0, 2, 0, 7, 0, 0, 4, 0, 9, 0, 3, 6, 5, 4, 9, 7, 0, 6, 0, 2, 10, 7, 0, 7, 5, 5, 0, 0, 2, 7, 6, 3, 0, 7, 0, 9, 6, 4, 6, 5, 0, 4, 3, 3, 0, 0, 7, 6, 5, 3, 8, 0, 4, 0, 6, 0, 0, 0, 0, 0, 7, 0, 0, 0, 0, 0, 0, 0, 9, 6, 0
 |0, 0, 0, 8, 0, 0, 0, 0, 1, 0, 0, 5, 9, 0, 9, 0, 0, 0, 4, 0, 1, 0, 5, 2, 2, 0, 0, 0, 0, 3, 6, 5, 3, 0, 0, 1, 5, 3, 1, 6, 0, 5, 0, 3, 0, 0, 0, 0, 0, 3, 0, 0, 0, 0, 0, 0, 0, 8, 6, 0, 0, 0, 0, 0, 0, 0, 0, 0, 0, 0, 0, 0, 8, 8, 8, 5, 4, 3, 10, 8, 0, 4, 0, 4, 6, 0, 2, 0, 5, 0, 0, 0, 0, 0, 0, 2, 0, 3, 0, 0, 0, 2, 0, 0, 0, 5, 4, 0, 0, 0, 0, 9, 0, 3, 0, 0, 0, 0, 0, 7, 0, 0, 0, 9, 5, 0, 0, 0, 0, 0, 9, 0, 10, 0, 8, 5, 4, 2, 8, 0, 4, 9, 6, 6, 4, 3, 3, 0, 0, 2|];